c Random generated cnf formula, satisfiable: true
p cnf 10 50
-1 3 -9 0
-5 -8 -9 0
-6 -8 -3 0
6 -3 -7 0
2 10 4 0
-10 2 -5 0
6 -7 3 0
3 -7 10 0
-2 -5 -4 0
-10 -1 -4 0
7 -1 -4 0
-1 -7 3 0
3 -5 -6 0
10 -3 -1 0
10 7 -1 0
-9 -8 -7 0
-9 -7 -2 0
2 3 -4 0
5 2 -8 0
4 8 1 0
-9 -7 4 0
5 9 -7 0
10 -2 -7 0
4 3 -2 0
-6 2 10 0
4 -3 -9 0
6 -7 -3 0
3 8 -4 0
2 10 -7 0
-7 -2 8 0
-7 -10 5 0
-9 -8 -3 0
10 8 5 0
-4 -2 -3 0
6 1 -4 0
-6 10 -3 0
9 -8 5 0
6 5 -7 0
-6 -2 -7 0
-1 2 -9 0
-7 -2 8 0
-6 8 -9 0
4 7 10 0
4 -5 2 0
-1 -2 -5 0
-1 9 2 0
6 4 -10 0
3 -10 -7 0
-6 -8 -5 0
-7 5 -4 0
